
******************************************************************************
This program contains Ipopt, a library for large-scale nonlinear optimization.
 Ipopt is released as open source code under the Eclipse Public License (EPL).
         For more information visit http://projects.coin-or.org/Ipopt

This version of Ipopt was compiled from source code available at
    https://github.com/IDAES/Ipopt as part of the Institute for the Design of
    Advanced Energy Systems Process Systems Engineering Framework (IDAES PSE
    Framework) Copyright (c) 2018-2019. See https://github.com/IDAES/idaes-pse.

This version of Ipopt was compiled using HSL, a collection of Fortran codes
    for large-scale scientific computation.  All technical papers, sales and
    publicity material resulting from use of the HSL codes within IPOPT must
    contain the following acknowledgement:
        HSL, a collection of Fortran codes for large-scale scientific
        computation. See http://www.hsl.rl.ac.uk.
******************************************************************************

This is Ipopt version 3.13.2, running with linear solver ma27.

Number of nonzeros in equality constraint Jacobian...:      808
Number of nonzeros in inequality constraint Jacobian.:        0
Number of nonzeros in Lagrangian Hessian.............:      702

Total number of variables............................:      351
                     variables with only lower bounds:      108
                variables with lower and upper bounds:      189
                     variables with only upper bounds:        0
Total number of equality constraints.................:      350
Total number of inequality constraints...............:        0
        inequality constraints with only lower bounds:        0
   inequality constraints with lower and upper bounds:        0
        inequality constraints with only upper bounds:        0

iter    objective    inf_pr   inf_du lg(mu)  ||d||  lg(rg) alpha_du alpha_pr  ls
   0  0.0000000e+00 6.59e-01 1.78e-15  -1.0 0.00e+00    -  0.00e+00 0.00e+00   0
   1  1.2422482e+00 4.30e-01 2.20e+05  -1.0 1.26e+05    -  5.03e-01 5.96e-01h  1
   2  1.2633178e+00 4.25e-01 2.15e+05  -1.0 5.34e+04    -  7.81e-01 1.27e-02h  1
   3  1.7824269e+00 3.56e-01 1.83e+05  -1.0 2.19e+05    -  7.78e-01 1.59e-01h  1
   4  1.5951217e+01 2.98e-02 5.09e+03  -1.0 1.92e+05    -  8.05e-01 9.90e-01h  1
   5  1.8813839e+01 6.69e-04 4.44e+02  -1.0 2.23e+04    -  9.71e-01 9.90e-01h  1
   6  1.8877613e+01 7.06e-06 2.46e+01  -1.0 4.75e+02    -  9.90e-01 9.90e-01h  1
   7  1.8976068e+01 4.44e-05 1.08e+03  -1.0 6.95e+02    -  9.90e-01 9.90e-01h  1
   8  1.8925364e+01 3.90e-05 5.19e+07  -2.5 9.26e+02    -  9.97e-01 3.82e-01f  2
   9  1.8876827e+01 1.07e-05 5.32e+05  -2.5 3.40e+02    -  1.00e+00 9.97e-01h  1
iter    objective    inf_pr   inf_du lg(mu)  ||d||  lg(rg) alpha_du alpha_pr  ls
  10  1.8876885e+01 3.09e-08 1.36e+08  -2.5 4.08e-01    -  1.00e+00 9.97e-01h  1
In iteration 10, 27 Slacks too small, adjusting variable bounds
  11  1.8876885e+01 1.08e-10 4.82e+10  -2.5 5.96e-04    -  1.00e+00 9.97e-01h  1
  12  1.8876885e+01 1.12e-10 8.50e+12  -2.5 1.44e-05    -  1.00e+00 5.00e-01h  2
  13  1.8876885e+01 2.06e-10 1.11e-03  -2.5 1.52e-05    -  1.00e+00 1.00e+00h  1
  14  1.8876874e+01 2.09e-10 4.83e+10  -9.0 2.01e+01    -  1.00e+00 3.88e-03f  9
  15  1.8876852e+01 1.12e-10 4.79e+10  -9.0 1.99e+01    -  1.00e+00 7.81e-03f  8
  16  1.8874035e+01 1.16e-10 8.42e-03  -9.0 1.97e+01    -  1.00e+00 1.00e+00F  1
  17  1.8874035e+01 3.29e-11 1.09e-11  -9.0 1.29e-05    -  1.00e+00 1.00e+00h  1

Number of Iterations....: 17

                                   (scaled)                 (unscaled)
Objective...............:   1.8874034781840543e+01    1.8874034781840543e+01
Dual infeasibility......:   1.0913936421275139e-11    1.0913936421275139e-11
Constraint violation....:   3.2885250078606987e-11    3.2885250078606987e-11
Complementarity.........:   9.0909090909093216e-10    9.0909090909093216e-10
Overall NLP error.......:   1.0505483453930060e-10    9.0909090909093216e-10


Number of objective function evaluations             = 46
Number of objective gradient evaluations             = 18
Number of equality constraint evaluations            = 46
Number of inequality constraint evaluations          = 0
Number of equality constraint Jacobian evaluations   = 18
Number of inequality constraint Jacobian evaluations = 0
Number of Lagrangian Hessian evaluations             = 17
Total CPU secs in IPOPT (w/o function evaluations)   =      0.041
Total CPU secs in NLP function evaluations           =      0.490

EXIT: Optimal Solution Found.
